45 0
34 28
31 25
32 12
48 11
3 4
1 19
19 2
29 42
7 9
27 47
45 40
36 11
37 11
34 29
38 18
46 19
1 26
6 46
44 13
45 0
7 15
15 46
24 16
0 7
16 18
30 3
4 28
32 34
30 38
40 5
12 16
33 17
8 3
37 35
21 12
5 30
13 33
47 9
25 40
7 42
10 15
8 3
7 6
41 34
3 17
28 49
20 21
44 3
13 40
